p cnf 587 1685
cr 343 345 347 349 351 352 354 355 357 359 361 363 365 366 367 369 370 372 373 374 375 376 377 378 380 382 383 385 386 388 389 391
c ind 343 345 347 349 351 352 354 355 357 359 0
c ind 361 363 365 366 367 369 370 372 373 374 0
c ind 375 376 377 378 380 382 383 385 386 388 0
c ind 389 391 0
-1 -3 0
2 -3 0
1 -2 3 0
-1 -4 0
-2 -4 0
1 2 4 0
-1 -6 0
-2 -6 0
5 -6 0
1 2 -5 6 0
-1 -7 0
-2 -7 0
-5 -7 0
1 2 5 7 0
-1 -9 0
-2 -9 0
-5 -9 0
8 -9 0
1 2 5 -8 9 0
-1 -10 0
-2 -10 0
-5 -10 0
-8 -10 0
1 2 5 8 10 0
-1 -12 0
-2 -12 0
-5 -12 0
-8 -12 0
11 -12 0
1 2 5 8 -11 12 0
-1 -13 0
-2 -13 0
-5 -13 0
-8 -13 0
-11 -13 0
1 2 5 8 11 13 0
-1 -15 0
-2 -15 0
-5 -15 0
-8 -15 0
-11 -15 0
14 -15 0
1 2 5 8 11 -14 15 0
-1 -16 0
-2 -16 0
-5 -16 0
-8 -16 0
-11 -16 0
-14 -16 0
1 2 5 8 11 14 16 0
-1 -18 0
-2 -18 0
-5 -18 0
-8 -18 0
-11 -18 0
-14 -18 0
17 -18 0
1 2 5 8 11 14 -17 18 0
-1 -19 0
-2 -19 0
-5 -19 0
-8 -19 0
-11 -19 0
-14 -19 0
-17 -19 0
1 2 5 8 11 14 17 19 0
-1 -21 0
-2 -21 0
-5 -21 0
-8 -21 0
-11 -21 0
-14 -21 0
-17 -21 0
20 -21 0
1 2 5 8 11 14 17 -20 21 0
-1 -22 0
-2 -22 0
-5 -22 0
-8 -22 0
-11 -22 0
-14 -22 0
-17 -22 0
-20 -22 0
1 2 5 8 11 14 17 20 22 0
-1 -24 0
-2 -24 0
-5 -24 0
-8 -24 0
-11 -24 0
-14 -24 0
-17 -24 0
-20 -24 0
23 -24 0
1 2 5 8 11 14 17 20 -23 24 0
-1 -25 0
-2 -25 0
-5 -25 0
-8 -25 0
-11 -25 0
-14 -25 0
-17 -25 0
-20 -25 0
-23 -25 0
1 2 5 8 11 14 17 20 23 25 0
-26 -58 0
27 -58 0
28 -58 0
29 -58 0
30 -58 0
-31 -58 0
32 -58 0
-33 -58 0
34 -58 0
35 -58 0
36 -58 0
37 -58 0
38 -58 0
-39 -58 0
-40 -58 0
41 -58 0
-42 -58 0
43 -58 0
-44 -58 0
-45 -58 0
-46 -58 0
-47 -58 0
-48 -58 0
-49 -58 0
50 -58 0
51 -58 0
-52 -58 0
53 -58 0
-54 -58 0
55 -58 0
-56 -58 0
57 -58 0
26 -27 -28 -29 -30 31 -32 33 -34 -35 -36 -37 -38 39 40 -41 42 -43 44 45 46 47 48 49 -50 -51 52 -53 54 -55 56 -57 58 0
-1 -58 -59 0
1 58 -59 0
-1 58 59 0
1 -58 59 0
-59 0
26 -60 0
27 -60 0
28 -60 0
29 -60 0
-30 -60 0
31 -60 0
-32 -60 0
33 -60 0
-34 -60 0
-35 -60 0
-36 -60 0
-37 -60 0
38 -60 0
39 -60 0
-40 -60 0
-41 -60 0
42 -60 0
-43 -60 0
44 -60 0
-45 -60 0
46 -60 0
47 -60 0
48 -60 0
-49 -60 0
-50 -60 0
-51 -60 0
52 -60 0
-53 -60 0
54 -60 0
55 -60 0
56 -60 0
57 -60 0
-26 -27 -28 -29 30 -31 32 -33 34 35 36 37 -38 -39 40 41 -42 43 -44 45 -46 -47 -48 49 50 51 -52 53 -54 -55 -56 -57 60 0
-2 -60 -61 0
2 60 -61 0
-2 60 61 0
2 -60 61 0
-61 0
-26 -62 0
27 -62 0
28 -62 0
29 -62 0
-30 -62 0
31 -62 0
32 -62 0
33 -62 0
34 -62 0
35 -62 0
36 -62 0
-37 -62 0
38 -62 0
-39 -62 0
40 -62 0
-41 -62 0
42 -62 0
-43 -62 0
-44 -62 0
45 -62 0
-46 -62 0
-47 -62 0
-48 -62 0
49 -62 0
50 -62 0
-51 -62 0
52 -62 0
-53 -62 0
-54 -62 0
-55 -62 0
-56 -62 0
-57 -62 0
26 -27 -28 -29 30 -31 -32 -33 -34 -35 -36 37 -38 39 -40 41 -42 43 44 -45 46 47 48 -49 -50 51 -52 53 54 55 56 57 62 0
-5 -62 -63 0
5 62 -63 0
-5 62 63 0
5 -62 63 0
-63 0
26 -64 0
27 -64 0
-28 -64 0
-29 -64 0
-30 -64 0
-31 -64 0
-32 -64 0
-33 -64 0
34 -64 0
35 -64 0
-36 -64 0
37 -64 0
38 -64 0
39 -64 0
40 -64 0
41 -64 0
42 -64 0
-43 -64 0
44 -64 0
-45 -64 0
46 -64 0
-47 -64 0
48 -64 0
-49 -64 0
-50 -64 0
51 -64 0
52 -64 0
53 -64 0
54 -64 0
55 -64 0
56 -64 0
-57 -64 0
-26 -27 28 29 30 31 32 33 -34 -35 36 -37 -38 -39 -40 -41 -42 43 -44 45 -46 47 -48 49 50 -51 -52 -53 -54 -55 -56 57 64 0
-8 -64 -65 0
8 64 -65 0
-8 64 65 0
8 -64 65 0
-65 0
26 -66 0
-27 -66 0
28 -66 0
-29 -66 0
-30 -66 0
31 -66 0
-32 -66 0
33 -66 0
34 -66 0
-35 -66 0
-36 -66 0
37 -66 0
38 -66 0
-39 -66 0
40 -66 0
41 -66 0
42 -66 0
-43 -66 0
-44 -66 0
-45 -66 0
-46 -66 0
47 -66 0
48 -66 0
-49 -66 0
50 -66 0
51 -66 0
-52 -66 0
-53 -66 0
54 -66 0
55 -66 0
-56 -66 0
-57 -66 0
-26 27 -28 29 30 -31 32 -33 -34 35 36 -37 -38 39 -40 -41 -42 43 44 45 46 -47 -48 49 -50 -51 52 53 -54 -55 56 57 66 0
-11 -66 -67 0
11 66 -67 0
-11 66 67 0
11 -66 67 0
-67 0
26 -68 0
27 -68 0
-28 -68 0
29 -68 0
-30 -68 0
-31 -68 0
32 -68 0
-33 -68 0
-34 -68 0
-35 -68 0
36 -68 0
37 -68 0
-38 -68 0
39 -68 0
-40 -68 0
41 -68 0
-42 -68 0
-43 -68 0
44 -68 0
-45 -68 0
-46 -68 0
-47 -68 0
48 -68 0
49 -68 0
-50 -68 0
-51 -68 0
-52 -68 0
53 -68 0
-54 -68 0
55 -68 0
-56 -68 0
-57 -68 0
-26 -27 28 -29 30 31 -32 33 34 35 -36 -37 38 -39 40 -41 42 43 -44 45 46 47 -48 -49 50 51 52 -53 54 -55 56 57 68 0
-14 -68 -69 0
14 68 -69 0
-14 68 69 0
14 -68 69 0
-69 0
-26 -70 0
27 -70 0
28 -70 0
-29 -70 0
-30 -70 0
-31 -70 0
32 -70 0
33 -70 0
-34 -70 0
35 -70 0
36 -70 0
37 -70 0
-38 -70 0
39 -70 0
40 -70 0
-41 -70 0
-42 -70 0
-43 -70 0
44 -70 0
45 -70 0
46 -70 0
47 -70 0
-48 -70 0
-49 -70 0
-50 -70 0
-51 -70 0
-52 -70 0
-53 -70 0
-54 -70 0
55 -70 0
56 -70 0
-57 -70 0
26 -27 -28 29 30 31 -32 -33 34 -35 -36 -37 38 -39 -40 41 42 43 -44 -45 -46 -47 48 49 50 51 52 53 54 -55 -56 57 70 0
-17 -70 -71 0
17 70 -71 0
-17 70 71 0
17 -70 71 0
-71 0
-26 -72 0
-27 -72 0
28 -72 0
-29 -72 0
30 -72 0
31 -72 0
-32 -72 0
-33 -72 0
34 -72 0
35 -72 0
36 -72 0
37 -72 0
38 -72 0
-39 -72 0
-40 -72 0
-41 -72 0
42 -72 0
43 -72 0
-44 -72 0
45 -72 0
46 -72 0
-47 -72 0
-48 -72 0
49 -72 0
-50 -72 0
-51 -72 0
-52 -72 0
-53 -72 0
-54 -72 0
55 -72 0
56 -72 0
57 -72 0
26 27 -28 29 -30 -31 32 33 -34 -35 -36 -37 -38 39 40 41 -42 -43 44 -45 -46 47 48 -49 50 51 52 53 54 -55 -56 -57 72 0
-20 -72 -73 0
20 72 -73 0
-20 72 73 0
20 -72 73 0
-73 0
26 -74 0
-27 -74 0
-28 -74 0
-29 -74 0
-30 -74 0
-31 -74 0
-32 -74 0
33 -74 0
-34 -74 0
-35 -74 0
-36 -74 0
-37 -74 0
-38 -74 0
-39 -74 0
-40 -74 0
-41 -74 0
-42 -74 0
-43 -74 0
-44 -74 0
-45 -74 0
-46 -74 0
-47 -74 0
-48 -74 0
-49 -74 0
-50 -74 0
-51 -74 0
-52 -74 0
-53 -74 0
-54 -74 0
-55 -74 0
-56 -74 0
-57 -74 0
-26 27 28 29 30 31 32 -33 34 35 36 37 38 39 40 41 42 43 44 45 46 47 48 49 50 51 52 53 54 55 56 57 74 0
-23 -74 -75 0
23 74 -75 0
-23 74 75 0
23 -74 75 0
-75 0
-20 -76 0
23 -76 0
20 -23 76 0
-20 -77 0
-23 -77 0
20 23 77 0
-20 -78 0
23 -78 0
20 -23 78 0
-20 -79 0
-23 -79 0
20 23 79 0
-20 80 0
-79 80 0
20 79 -80 0
-20 -81 0
-23 -81 0
20 23 81 0
-20 -82 0
-23 -82 0
20 23 82 0
-20 83 0
-82 83 0
20 82 -83 0
-20 -84 0
-23 -84 0
20 23 84 0
-20 85 0
-84 85 0
20 84 -85 0
-20 -86 0
-23 -86 0
20 23 86 0
-20 -87 0
-23 -87 0
20 23 87 0
-20 88 0
-87 88 0
20 87 -88 0
-17 -89 0
76 -89 0
17 -76 89 0
-17 -90 0
20 -90 0
17 -20 90 0
-17 91 0
-90 91 0
17 90 -91 0
-17 -92 0
20 -92 0
17 -20 92 0
-17 -93 0
20 -93 0
17 -20 93 0
-17 -94 0
77 -94 0
17 -77 94 0
-17 95 0
-94 95 0
17 94 -95 0
-17 -96 0
78 -96 0
17 -78 96 0
-17 97 0
-96 97 0
17 96 -97 0
-17 -98 0
20 -98 0
17 -20 98 0
-17 -99 0
80 -99 0
17 -80 99 0
-17 100 0
-99 100 0
17 99 -100 0
-17 -101 0
20 -101 0
17 -20 101 0
-17 102 0
-101 102 0
17 101 -102 0
-17 -103 0
20 -103 0
17 -20 103 0
-17 104 0
-103 104 0
17 103 -104 0
-17 -105 0
20 -105 0
17 -20 105 0
-17 -106 0
81 -106 0
17 -81 106 0
-17 107 0
-106 107 0
17 106 -107 0
-17 -108 0
83 -108 0
17 -83 108 0
-17 -109 0
85 -109 0
17 -85 109 0
-17 -110 0
86 -110 0
17 -86 110 0
-17 111 0
-110 111 0
17 110 -111 0
-17 -112 0
88 -112 0
17 -88 112 0
-17 113 0
-112 113 0
17 112 -113 0
-17 -114 0
20 -114 0
17 -20 114 0
-17 115 0
-114 115 0
17 114 -115 0
-17 -116 0
20 -116 0
17 -20 116 0
-17 -117 0
20 -117 0
17 -20 117 0
-17 118 0
-117 118 0
17 117 -118 0
-17 -119 0
20 -119 0
17 -20 119 0
-17 120 0
-119 120 0
17 119 -120 0
-17 -121 0
20 -121 0
17 -20 121 0
-14 -122 0
89 -122 0
14 -89 122 0
-14 123 0
-122 123 0
14 122 -123 0
-14 -124 0
17 -124 0
14 -17 124 0
-14 125 0
-124 125 0
14 124 -125 0
-14 -126 0
91 -126 0
14 -91 126 0
-14 -127 0
92 -127 0
14 -92 127 0
-14 -128 0
93 -128 0
14 -93 128 0
-14 -129 0
95 -129 0
14 -95 129 0
-14 130 0
-129 130 0
14 129 -130 0
-14 -131 0
97 -131 0
14 -97 131 0
-14 -132 0
98 -132 0
14 -98 132 0
-14 -133 0
100 -133 0
14 -100 133 0
-14 -134 0
102 -134 0
14 -102 134 0
-14 135 0
-134 135 0
14 134 -135 0
-14 -136 0
104 -136 0
14 -104 136 0
-14 137 0
-136 137 0
14 136 -137 0
-14 -138 0
105 -138 0
14 -105 138 0
-14 -139 0
17 -139 0
14 -17 139 0
-14 140 0
-139 140 0
14 139 -140 0
-14 -141 0
107 -141 0
14 -107 141 0
-14 -142 0
108 -142 0
14 -108 142 0
-14 -143 0
109 -143 0
14 -109 143 0
-14 -144 0
111 -144 0
14 -111 144 0
-14 145 0
-144 145 0
14 144 -145 0
-14 -146 0
113 -146 0
14 -113 146 0
-14 -147 0
115 -147 0
14 -115 147 0
-14 -148 0
17 -148 0
14 -17 148 0
-14 -149 0
116 -149 0
14 -116 149 0
-14 150 0
-149 150 0
14 149 -150 0
-14 -151 0
118 -151 0
14 -118 151 0
-14 152 0
-151 152 0
14 151 -152 0
-14 -153 0
120 -153 0
14 -120 153 0
-14 -154 0
121 -154 0
14 -121 154 0
-11 -155 0
123 -155 0
11 -123 155 0
-11 156 0
-155 156 0
11 155 -156 0
-11 -157 0
125 -157 0
11 -125 157 0
-11 -158 0
126 -158 0
11 -126 158 0
-11 159 0
-158 159 0
11 158 -159 0
-11 -160 0
14 -160 0
11 -14 160 0
-11 -161 0
127 -161 0
11 -127 161 0
-11 -162 0
128 -162 0
11 -128 162 0
-11 163 0
-162 163 0
11 162 -163 0
-11 -164 0
130 -164 0
11 -130 164 0
-11 -165 0
131 -165 0
11 -131 165 0
-11 166 0
-165 166 0
11 165 -166 0
-11 -167 0
132 -167 0
11 -132 167 0
-11 168 0
-167 168 0
11 167 -168 0
-11 -169 0
133 -169 0
11 -133 169 0
-11 -170 0
135 -170 0
11 -135 170 0
-11 -171 0
137 -171 0
11 -137 171 0
-11 172 0
-171 172 0
11 171 -172 0
-11 -173 0
138 -173 0
11 -138 173 0
-11 174 0
-173 174 0
11 173 -174 0
-11 -175 0
140 -175 0
11 -140 175 0
-11 -176 0
141 -176 0
11 -141 176 0
-11 177 0
-176 177 0
11 176 -177 0
-11 -178 0
14 -178 0
11 -14 178 0
-11 179 0
-178 179 0
11 178 -179 0
-11 -180 0
142 -180 0
11 -142 180 0
-11 181 0
-180 181 0
11 180 -181 0
-11 -182 0
143 -182 0
11 -143 182 0
-11 -183 0
145 -183 0
11 -145 183 0
-11 -184 0
146 -184 0
11 -146 184 0
-11 -185 0
147 -185 0
11 -147 185 0
-11 -186 0
148 -186 0
11 -148 186 0
-11 187 0
-186 187 0
11 186 -187 0
-11 -188 0
14 -188 0
11 -14 188 0
-11 189 0
-188 189 0
11 188 -189 0
-11 -190 0
150 -190 0
11 -150 190 0
-11 -191 0
14 -191 0
11 -14 191 0
-11 -192 0
152 -192 0
11 -152 192 0
-11 193 0
-192 193 0
11 192 -193 0
-11 -194 0
153 -194 0
11 -153 194 0
-11 -195 0
154 -195 0
11 -154 195 0
-8 -196 0
156 -196 0
8 -156 196 0
-8 197 0
-196 197 0
8 196 -197 0
-8 -198 0
157 -198 0
8 -157 198 0
-8 199 0
-198 199 0
8 198 -199 0
-8 -200 0
159 -200 0
8 -159 200 0
-8 -201 0
160 -201 0
8 -160 201 0
-8 -202 0
161 -202 0
8 -161 202 0
-8 -203 0
163 -203 0
8 -163 203 0
-8 -204 0
164 -204 0
8 -164 204 0
-8 -205 0
166 -205 0
8 -166 205 0
-8 -206 0
168 -206 0
8 -168 206 0
-8 207 0
-206 207 0
8 206 -207 0
-8 -208 0
169 -208 0
8 -169 208 0
-8 209 0
-208 209 0
8 208 -209 0
-8 -210 0
170 -210 0
8 -170 210 0
-8 -211 0
172 -211 0
8 -172 211 0
-8 212 0
-211 212 0
8 211 -212 0
-8 -213 0
174 -213 0
8 -174 213 0
-8 214 0
-213 214 0
8 213 -214 0
-8 -215 0
175 -215 0
8 -175 215 0
-8 216 0
-215 216 0
8 215 -216 0
-8 -217 0
177 -217 0
8 -177 217 0
-8 218 0
-217 218 0
8 217 -218 0
-8 -219 0
179 -219 0
8 -179 219 0
-8 220 0
-219 220 0
8 219 -220 0
-8 -221 0
181 -221 0
8 -181 221 0
-8 222 0
-221 222 0
8 221 -222 0
-8 -223 0
182 -223 0
8 -182 223 0
-8 -224 0
183 -224 0
8 -183 224 0
-8 225 0
-224 225 0
8 224 -225 0
-8 -226 0
184 -226 0
8 -184 226 0
-8 -227 0
185 -227 0
8 -185 227 0
-8 228 0
-227 228 0
8 227 -228 0
-8 -229 0
187 -229 0
8 -187 229 0
-8 -230 0
189 -230 0
8 -189 230 0
-8 231 0
-230 231 0
8 230 -231 0
-8 -232 0
190 -232 0
8 -190 232 0
-8 -233 0
11 -233 0
8 -11 233 0
-8 -234 0
11 -234 0
8 -11 234 0
-8 235 0
-234 235 0
8 234 -235 0
-8 -236 0
191 -236 0
8 -191 236 0
-8 237 0
-236 237 0
8 236 -237 0
-8 -238 0
11 -238 0
8 -11 238 0
-8 239 0
-238 239 0
8 238 -239 0
-8 -240 0
193 -240 0
8 -193 240 0
-8 241 0
-240 241 0
8 240 -241 0
-8 -242 0
194 -242 0
8 -194 242 0
-8 243 0
-242 243 0
8 242 -243 0
-8 -244 0
195 -244 0
8 -195 244 0
-5 -245 0
197 -245 0
5 -197 245 0
-5 -246 0
199 -246 0
5 -199 246 0
-5 247 0
-246 247 0
5 246 -247 0
-5 -248 0
200 -248 0
5 -200 248 0
-5 249 0
-248 249 0
5 248 -249 0
-5 -250 0
201 -250 0
5 -201 250 0
-5 251 0
-250 251 0
5 250 -251 0
-5 -252 0
202 -252 0
5 -202 252 0
-5 -253 0
203 -253 0
5 -203 253 0
-5 254 0
-253 254 0
5 253 -254 0
-5 -255 0
204 -255 0
5 -204 255 0
-5 256 0
-255 256 0
5 255 -256 0
-5 -257 0
205 -257 0
5 -205 257 0
-5 258 0
-257 258 0
5 257 -258 0
-5 -259 0
207 -259 0
5 -207 259 0
-5 260 0
-259 260 0
5 259 -260 0
-5 -261 0
209 -261 0
5 -209 261 0
-5 262 0
-261 262 0
5 261 -262 0
-5 -263 0
210 -263 0
5 -210 263 0
-5 264 0
-263 264 0
5 263 -264 0
-5 -265 0
212 -265 0
5 -212 265 0
-5 -266 0
214 -266 0
5 -214 266 0
-5 267 0
-266 267 0
5 266 -267 0
-5 -268 0
216 -268 0
5 -216 268 0
-5 -269 0
218 -269 0
5 -218 269 0
-5 270 0
-269 270 0
5 269 -270 0
-5 -271 0
220 -271 0
5 -220 271 0
-5 -272 0
222 -272 0
5 -222 272 0
-5 273 0
-272 273 0
5 272 -273 0
-5 -274 0
223 -274 0
5 -223 274 0
-5 -275 0
225 -275 0
5 -225 275 0
-5 -276 0
226 -276 0
5 -226 276 0
-5 277 0
-276 277 0
5 276 -277 0
-5 -278 0
228 -278 0
5 -228 278 0
-5 -279 0
229 -279 0
5 -229 279 0
-5 -280 0
231 -280 0
5 -231 280 0
-5 -281 0
232 -281 0
5 -232 281 0
-5 282 0
-281 282 0
5 281 -282 0
-5 -283 0
233 -283 0
5 -233 283 0
-5 284 0
-283 284 0
5 283 -284 0
-5 -285 0
235 -285 0
5 -235 285 0
-5 -286 0
8 -286 0
5 -8 286 0
-5 287 0
-286 287 0
5 286 -287 0
-5 -288 0
237 -288 0
5 -237 288 0
-5 -289 0
239 -289 0
5 -239 289 0
-5 -290 0
241 -290 0
5 -241 290 0
-5 -291 0
243 -291 0
5 -243 291 0
-5 -292 0
244 -292 0
5 -244 292 0
-2 -293 0
245 -293 0
2 -245 293 0
-2 294 0
-293 294 0
2 293 -294 0
-2 -295 0
247 -295 0
2 -247 295 0
-2 296 0
-295 296 0
2 295 -296 0
-2 -297 0
249 -297 0
2 -249 297 0
-2 298 0
-297 298 0
2 297 -298 0
-2 -299 0
251 -299 0
2 -251 299 0
-2 300 0
-299 300 0
2 299 -300 0
-2 -301 0
252 -301 0
2 -252 301 0
-2 -302 0
254 -302 0
2 -254 302 0
-2 303 0
-302 303 0
2 302 -303 0
-2 -304 0
256 -304 0
2 -256 304 0
-2 -305 0
258 -305 0
2 -258 305 0
-2 306 0
-305 306 0
2 305 -306 0
-2 -307 0
260 -307 0
2 -260 307 0
-2 -308 0
262 -308 0
2 -262 308 0
-2 -309 0
264 -309 0
2 -264 309 0
-2 -310 0
265 -310 0
2 -265 310 0
-2 -311 0
267 -311 0
2 -267 311 0
-2 312 0
-311 312 0
2 311 -312 0
-2 -313 0
268 -313 0
2 -268 313 0
-2 314 0
-313 314 0
2 313 -314 0
-2 -315 0
270 -315 0
2 -270 315 0
-2 -316 0
271 -316 0
2 -271 316 0
-2 -317 0
273 -317 0
2 -273 317 0
-2 318 0
-317 318 0
2 317 -318 0
-2 -319 0
274 -319 0
2 -274 319 0
-2 -320 0
275 -320 0
2 -275 320 0
-2 321 0
-320 321 0
2 320 -321 0
-2 -322 0
277 -322 0
2 -277 322 0
-2 -323 0
278 -323 0
2 -278 323 0
-2 324 0
-323 324 0
2 323 -324 0
-2 -325 0
279 -325 0
2 -279 325 0
-2 326 0
-325 326 0
2 325 -326 0
-2 -327 0
280 -327 0
2 -280 327 0
-2 328 0
-327 328 0
2 327 -328 0
-2 -329 0
282 -329 0
2 -282 329 0
-2 -330 0
284 -330 0
2 -284 330 0
-2 -331 0
285 -331 0
2 -285 331 0
-2 -332 0
287 -332 0
2 -287 332 0
-2 333 0
-332 333 0
2 332 -333 0
-2 -334 0
288 -334 0
2 -288 334 0
-2 -335 0
289 -335 0
2 -289 335 0
-2 336 0
-335 336 0
2 335 -336 0
-2 -337 0
290 -337 0
2 -290 337 0
-2 338 0
-337 338 0
2 337 -338 0
-2 -339 0
291 -339 0
2 -291 339 0
-2 340 0
-339 340 0
2 339 -340 0
-2 -341 0
292 -341 0
2 -292 341 0
-2 342 0
-341 342 0
2 341 -342 0
-1 -343 0
294 -343 0
1 -294 343 0
-1 -344 0
296 -344 0
1 -296 344 0
-1 345 0
-344 345 0
1 344 -345 0
-1 -346 0
298 -346 0
1 -298 346 0
-1 347 0
-346 347 0
1 346 -347 0
-1 -348 0
300 -348 0
1 -300 348 0
-1 349 0
-348 349 0
1 348 -349 0
-1 -350 0
301 -350 0
1 -301 350 0
-1 351 0
-350 351 0
1 350 -351 0
-1 -352 0
303 -352 0
1 -303 352 0
-1 -353 0
304 -353 0
1 -304 353 0
-1 354 0
-353 354 0
1 353 -354 0
-1 -355 0
306 -355 0
1 -306 355 0
-1 -356 0
307 -356 0
1 -307 356 0
-1 357 0
-356 357 0
1 356 -357 0
-1 -358 0
308 -358 0
1 -308 358 0
-1 359 0
-358 359 0
1 358 -359 0
-1 -360 0
309 -360 0
1 -309 360 0
-1 361 0
-360 361 0
1 360 -361 0
-1 -362 0
310 -362 0
1 -310 362 0
-1 363 0
-362 363 0
1 362 -363 0
-1 -364 0
312 -364 0
1 -312 364 0
-1 365 0
-364 365 0
1 364 -365 0
-1 -366 0
314 -366 0
1 -314 366 0
-1 -367 0
315 -367 0
1 -315 367 0
-1 -368 0
316 -368 0
1 -316 368 0
-1 369 0
-368 369 0
1 368 -369 0
-1 -370 0
318 -370 0
1 -318 370 0
-1 -371 0
319 -371 0
1 -319 371 0
-1 372 0
-371 372 0
1 371 -372 0
-1 -373 0
321 -373 0
1 -321 373 0
-1 -374 0
322 -374 0
1 -322 374 0
-1 -375 0
324 -375 0
1 -324 375 0
-1 -376 0
326 -376 0
1 -326 376 0
-1 -377 0
328 -377 0
1 -328 377 0
-1 -378 0
329 -378 0
1 -329 378 0
-1 -379 0
330 -379 0
1 -330 379 0
-1 380 0
-379 380 0
1 379 -380 0
-1 -381 0
331 -381 0
1 -331 381 0
-1 382 0
-381 382 0
1 381 -382 0
-1 -383 0
333 -383 0
1 -333 383 0
-1 -384 0
334 -384 0
1 -334 384 0
-1 385 0
-384 385 0
1 384 -385 0
-1 -386 0
336 -386 0
1 -336 386 0
-1 -387 0
338 -387 0
1 -338 387 0
-1 388 0
-387 388 0
1 387 -388 0
-1 -389 0
340 -389 0
1 -340 389 0
-1 -390 0
342 -390 0
1 -342 390 0
-1 391 0
-390 391 0
1 390 -391 0
-392 -424 0
392 -424 0
-393 -425 0
393 -425 0
-394 -426 0
394 -426 0
-395 -427 0
395 -427 0
-396 -428 0
396 -428 0
-397 -429 0
397 -429 0
-398 -430 0
398 -430 0
-399 -431 0
399 -431 0
-400 -432 0
400 -432 0
-401 -433 0
401 -433 0
-402 -434 0
402 -434 0
-403 -435 0
403 -435 0
-404 -436 0
404 -436 0
-405 -437 0
405 -437 0
-406 -438 0
406 -438 0
-407 -439 0
407 -439 0
-408 -440 0
408 -440 0
-409 -441 0
409 -441 0
-410 -442 0
410 -442 0
-411 -443 0
411 -443 0
-412 -444 0
412 -444 0
-413 -445 0
413 -445 0
-414 -446 0
414 -446 0
-415 -447 0
415 -447 0
-416 -448 0
416 -448 0
-417 -449 0
417 -449 0
-418 -450 0
418 -450 0
-419 -451 0
419 -451 0
-420 -452 0
420 -452 0
-421 -453 0
421 -453 0
-422 -454 0
422 -454 0
-423 -455 0
423 -455 0
-424 -456 0
-425 -456 0
-426 -456 0
-427 -456 0
-428 -456 0
-429 -456 0
-430 -456 0
-431 -456 0
-432 -456 0
-433 -456 0
-434 -456 0
-435 -456 0
-436 -456 0
-437 -456 0
-438 -456 0
-439 -456 0
-440 -456 0
-441 -456 0
-442 -456 0
-443 -456 0
-444 -456 0
-445 -456 0
-446 -456 0
-447 -456 0
-448 -456 0
-449 -456 0
-450 -456 0
-451 -456 0
-452 -456 0
-453 -456 0
-454 -456 0
-455 -456 0
424 425 426 427 428 429 430 431 432 433 434 435 436 437 438 439 440 441 442 443 444 445 446 447 448 449 450 451 452 453 454 455 456 0
-457 -489 0
457 -489 0
-458 -490 0
458 -490 0
-459 -491 0
459 -491 0
-460 -492 0
460 -492 0
-461 -493 0
461 -493 0
-462 -494 0
462 -494 0
-463 -495 0
463 -495 0
-464 -496 0
464 -496 0
-465 -497 0
465 -497 0
-466 -498 0
466 -498 0
-467 -499 0
467 -499 0
-468 -500 0
468 -500 0
-469 -501 0
469 -501 0
-470 -502 0
470 -502 0
-471 -503 0
471 -503 0
-472 -504 0
472 -504 0
-473 -505 0
473 -505 0
-474 -506 0
474 -506 0
-475 -507 0
475 -507 0
-476 -508 0
476 -508 0
-477 -509 0
477 -509 0
-478 -510 0
478 -510 0
-479 -511 0
479 -511 0
-480 -512 0
480 -512 0
-481 -513 0
481 -513 0
-482 -514 0
482 -514 0
-483 -515 0
483 -515 0
-484 -516 0
484 -516 0
-485 -517 0
485 -517 0
-486 -518 0
486 -518 0
-487 -519 0
487 -519 0
-488 -520 0
488 -520 0
-489 -521 0
-490 -521 0
-491 -521 0
-492 -521 0
-493 -521 0
-494 -521 0
-495 -521 0
-496 -521 0
-497 -521 0
-498 -521 0
-499 -521 0
-500 -521 0
-501 -521 0
-502 -521 0
-503 -521 0
-504 -521 0
-505 -521 0
-506 -521 0
-507 -521 0
-508 -521 0
-509 -521 0
-510 -521 0
-511 -521 0
-512 -521 0
-513 -521 0
-514 -521 0
-515 -521 0
-516 -521 0
-517 -521 0
-518 -521 0
-519 -521 0
-520 -521 0
489 490 491 492 493 494 495 496 497 498 499 500 501 502 503 504 505 506 507 508 509 510 511 512 513 514 515 516 517 518 519 520 521 0
-522 -554 0
522 -554 0
-523 -555 0
523 -555 0
-524 -556 0
524 -556 0
-525 -557 0
525 -557 0
-526 -558 0
526 -558 0
-527 -559 0
527 -559 0
-528 -560 0
528 -560 0
-529 -561 0
529 -561 0
-530 -562 0
530 -562 0
-531 -563 0
531 -563 0
-532 -564 0
532 -564 0
-533 -565 0
533 -565 0
-534 -566 0
534 -566 0
-535 -567 0
535 -567 0
-536 -568 0
536 -568 0
-537 -569 0
537 -569 0
-538 -570 0
538 -570 0
-539 -571 0
539 -571 0
-540 -572 0
540 -572 0
-541 -573 0
541 -573 0
-542 -574 0
542 -574 0
-543 -575 0
543 -575 0
-544 -576 0
544 -576 0
-545 -577 0
545 -577 0
-546 -578 0
546 -578 0
-547 -579 0
547 -579 0
-548 -580 0
548 -580 0
-549 -581 0
549 -581 0
-550 -582 0
550 -582 0
-551 -583 0
551 -583 0
-552 -584 0
552 -584 0
-553 -585 0
553 -585 0
-554 -586 0
-555 -586 0
-556 -586 0
-557 -586 0
-558 -586 0
-559 -586 0
-560 -586 0
-561 -586 0
-562 -586 0
-563 -586 0
-564 -586 0
-565 -586 0
-566 -586 0
-567 -586 0
-568 -586 0
-569 -586 0
-570 -586 0
-571 -586 0
-572 -586 0
-573 -586 0
-574 -586 0
-575 -586 0
-576 -586 0
-577 -586 0
-578 -586 0
-579 -586 0
-580 -586 0
-581 -586 0
-582 -586 0
-583 -586 0
-584 -586 0
-585 -586 0
554 555 556 557 558 559 560 561 562 563 564 565 566 567 568 569 570 571 572 573 574 575 576 577 578 579 580 581 582 583 584 585 586 0
c FALSE c::__CPROVER_malloc_is_new_array#1
c 1 goto_symex::\guard#1
c 2 goto_symex::\guard#2
c 5 goto_symex::\guard#3
c 8 goto_symex::\guard#4
c 11 goto_symex::\guard#5
c 14 goto_symex::\guard#6
c 17 goto_symex::\guard#7
c 20 goto_symex::\guard#8
c 23 goto_symex::\guard#9
c c::main::1::O!0@1#27 197 199 200 201 202 203 204 205 207 209 210 212 214 216 218 220 222 223 225 226 228 229 231 232 233 235 8 237 239 241 243 244
c c::main::1::O!0@1#28 245 247 249 251 252 254 256 258 260 262 264 265 267 268 270 271 273 274 275 277 278 279 280 282 284 285 287 288 289 290 291 292
c c::main::1::O!0@1#29 294 296 298 300 301 303 304 306 307 308 309 310 312 314 315 316 318 319 321 322 324 326 328 329 330 331 333 334 336 338 340 342
c c::main::1::O!0@1#30 343 345 347 349 351 352 354 355 357 359 361 363 365 366 367 369 370 372 373 374 375 376 377 378 380 382 383 385 386 388 389 391
c c::main::$tmp::return_value_nondet_uint$1!0@1#1 392 393 394 395 396 397 398 399 400 401 402 403 404 405 406 407 408 409 410 411 412 413 414 415 416 417 418 419 420 421 422 423
c symex::nondet0 26 27 28 29 30 31 32 33 34 35 36 37 38 39 40 41 42 43 44 45 46 47 48 49 50 51 52 53 54 55 56 57
c c::main::$tmp::return_value_nondet_uint$1!0@1#2 26 27 28 29 30 31 32 33 34 35 36 37 38 39 40 41 42 43 44 45 46 47 48 49 50 51 52 53 54 55 56 57
c c::main::1::I!0@1#1 457 458 459 460 461 462 463 464 465 466 467 468 469 470 471 472 473 474 475 476 477 478 479 480 481 482 483 484 485 486 487 488
c c::main::1::I!0@1#2 26 27 28 29 30 31 32 33 34 35 36 37 38 39 40 41 42 43 44 45 46 47 48 49 50 51 52 53 54 55 56 57
c c::main::1::O!0@1#1 522 523 524 525 526 527 528 529 530 531 532 533 534 535 536 537 538 539 540 541 542 543 544 545 546 547 548 549 550 551 552 553
c c::main::1::O!0@1#2 FALSE FALSE FALSE FALSE FALSE FALSE FALSE FALSE FALSE FALSE FALSE FALSE FALSE FALSE FALSE FALSE FALSE FALSE FALSE FALSE FALSE FALSE FALSE FALSE FALSE FALSE FALSE FALSE FALSE FALSE FALSE FALSE
c c::main::1::O!0@1#3 FALSE TRUE TRUE TRUE TRUE FALSE TRUE FALSE TRUE TRUE TRUE TRUE TRUE FALSE FALSE TRUE FALSE TRUE FALSE FALSE FALSE FALSE FALSE FALSE TRUE TRUE FALSE TRUE FALSE TRUE FALSE TRUE
c c::main::1::O!0@1#4 FALSE FALSE FALSE FALSE FALSE FALSE FALSE FALSE FALSE FALSE FALSE FALSE FALSE FALSE FALSE FALSE FALSE FALSE FALSE FALSE FALSE FALSE FALSE FALSE FALSE FALSE FALSE FALSE FALSE FALSE FALSE FALSE
c c::main::1::O!0@1#5 TRUE TRUE TRUE TRUE FALSE TRUE FALSE TRUE FALSE FALSE FALSE FALSE TRUE TRUE FALSE FALSE TRUE FALSE TRUE FALSE TRUE TRUE TRUE FALSE FALSE FALSE TRUE FALSE TRUE TRUE TRUE TRUE
c c::main::1::O!0@1#6 FALSE FALSE FALSE FALSE FALSE FALSE FALSE FALSE FALSE FALSE FALSE FALSE FALSE FALSE FALSE FALSE FALSE FALSE FALSE FALSE FALSE FALSE FALSE FALSE FALSE FALSE FALSE FALSE FALSE FALSE FALSE FALSE
c c::main::1::O!0@1#7 FALSE TRUE TRUE TRUE FALSE TRUE TRUE TRUE TRUE TRUE TRUE FALSE TRUE FALSE TRUE FALSE TRUE FALSE FALSE TRUE FALSE FALSE FALSE TRUE TRUE FALSE TRUE FALSE FALSE FALSE FALSE FALSE
c c::main::1::O!0@1#8 FALSE FALSE FALSE FALSE FALSE FALSE FALSE FALSE FALSE FALSE FALSE FALSE FALSE FALSE FALSE FALSE FALSE FALSE FALSE FALSE FALSE FALSE FALSE FALSE FALSE FALSE FALSE FALSE FALSE FALSE FALSE FALSE
c c::main::1::O!0@1#9 TRUE TRUE FALSE FALSE FALSE FALSE FALSE FALSE TRUE TRUE FALSE TRUE TRUE TRUE TRUE TRUE TRUE FALSE TRUE FALSE TRUE FALSE TRUE FALSE FALSE TRUE TRUE TRUE TRUE TRUE TRUE FALSE
c c::main::1::O!0@1#10 FALSE FALSE FALSE FALSE FALSE FALSE FALSE FALSE FALSE FALSE FALSE FALSE FALSE FALSE FALSE FALSE FALSE FALSE FALSE FALSE FALSE FALSE FALSE FALSE FALSE FALSE FALSE FALSE FALSE FALSE FALSE FALSE
c c::main::1::O!0@1#11 TRUE FALSE TRUE FALSE FALSE TRUE FALSE TRUE TRUE FALSE FALSE TRUE TRUE FALSE TRUE TRUE TRUE FALSE FALSE FALSE FALSE TRUE TRUE FALSE TRUE TRUE FALSE FALSE TRUE TRUE FALSE FALSE
c c::main::1::O!0@1#12 FALSE FALSE FALSE FALSE FALSE FALSE FALSE FALSE FALSE FALSE FALSE FALSE FALSE FALSE FALSE FALSE FALSE FALSE FALSE FALSE FALSE FALSE FALSE FALSE FALSE FALSE FALSE FALSE FALSE FALSE FALSE FALSE
c c::main::1::O!0@1#13 TRUE TRUE FALSE TRUE FALSE FALSE TRUE FALSE FALSE FALSE TRUE TRUE FALSE TRUE FALSE TRUE FALSE FALSE TRUE FALSE FALSE FALSE TRUE TRUE FALSE FALSE FALSE TRUE FALSE TRUE FALSE FALSE
c c::main::1::O!0@1#14 FALSE FALSE FALSE FALSE FALSE FALSE FALSE FALSE FALSE FALSE FALSE FALSE FALSE FALSE FALSE FALSE FALSE FALSE FALSE FALSE FALSE FALSE FALSE FALSE FALSE FALSE FALSE FALSE FALSE FALSE FALSE FALSE
c c::main::1::O!0@1#15 FALSE TRUE TRUE FALSE FALSE FALSE TRUE TRUE FALSE TRUE TRUE TRUE FALSE TRUE TRUE FALSE FALSE FALSE TRUE TRUE TRUE TRUE FALSE FALSE FALSE FALSE FALSE FALSE FALSE TRUE TRUE FALSE
c c::main::1::O!0@1#16 FALSE FALSE FALSE FALSE FALSE FALSE FALSE FALSE FALSE FALSE FALSE FALSE FALSE FALSE FALSE FALSE FALSE FALSE FALSE FALSE FALSE FALSE FALSE FALSE FALSE FALSE FALSE FALSE FALSE FALSE FALSE FALSE
c c::main::1::O!0@1#17 FALSE FALSE TRUE FALSE TRUE TRUE FALSE FALSE TRUE TRUE TRUE TRUE TRUE FALSE FALSE FALSE TRUE TRUE FALSE TRUE TRUE FALSE FALSE TRUE FALSE FALSE FALSE FALSE FALSE TRUE TRUE TRUE
c c::main::1::O!0@1#18 FALSE FALSE FALSE FALSE FALSE FALSE FALSE FALSE FALSE FALSE FALSE FALSE FALSE FALSE FALSE FALSE FALSE FALSE FALSE FALSE FALSE FALSE FALSE FALSE FALSE FALSE FALSE FALSE FALSE FALSE FALSE FALSE
c c::main::1::O!0@1#19 TRUE FALSE FALSE FALSE FALSE FALSE FALSE TRUE FALSE FALSE FALSE FALSE FALSE FALSE FALSE FALSE FALSE FALSE FALSE FALSE FALSE FALSE FALSE FALSE FALSE FALSE FALSE FALSE FALSE FALSE FALSE FALSE
c c::main::1::O!0@1#20 FALSE FALSE FALSE FALSE FALSE FALSE FALSE FALSE FALSE FALSE FALSE FALSE FALSE FALSE FALSE FALSE FALSE FALSE FALSE FALSE FALSE FALSE FALSE FALSE FALSE FALSE FALSE FALSE FALSE FALSE FALSE FALSE
c c::main::1::O!0@1#21 FALSE FALSE FALSE FALSE FALSE FALSE TRUE FALSE FALSE TRUE FALSE FALSE FALSE FALSE TRUE FALSE TRUE TRUE TRUE TRUE FALSE FALSE FALSE FALSE FALSE FALSE FALSE FALSE FALSE FALSE FALSE FALSE
c c::main::1::O!0@1#22 23 FALSE FALSE FALSE FALSE FALSE -23 23 FALSE -23 FALSE FALSE FALSE FALSE -23 FALSE -23 -23 -23 -23 FALSE FALSE FALSE FALSE FALSE FALSE FALSE FALSE FALSE FALSE FALSE FALSE
c c::main::1::O!0@1#23 76 FALSE 20 FALSE 20 20 77 78 20 80 20 20 20 FALSE 81 FALSE 83 85 86 88 20 FALSE FALSE 20 FALSE FALSE FALSE FALSE FALSE 20 20 20
c c::main::1::O!0@1#24 89 17 91 FALSE 92 93 95 97 98 100 102 104 105 17 107 FALSE 108 109 111 113 115 17 FALSE 116 FALSE FALSE FALSE FALSE FALSE 118 120 121
c c::main::1::O!0@1#25 123 125 126 14 127 128 130 131 132 133 135 137 138 140 141 14 142 143 145 146 147 148 14 150 FALSE FALSE FALSE 14 FALSE 152 153 154
c c::main::1::O!0@1#26 156 157 159 160 161 163 164 166 168 169 170 172 174 175 177 179 181 182 183 184 185 187 189 190 11 11 FALSE 191 11 193 194 195
